qbf_easy_train/easy_282_SAT.qdimacs
p cnf 19 40
a 1 4 9 0
e 2 3 5 6 7 8 10 11 12 13 14 15 16 17 18 19 0
3 1 0
3 -2 0
-1 2 -3 0
-8 -1 0
-8 -7 0
1 7 8 0
6 -8 -9 0
-6 8 -9 0
6 8 9 0
-6 -8 9 0
10 5 0
10 9 0
-5 -9 -10 0
11 5 0
11 -10 0
-5 10 -11 0
12 4 0
12 -11 0
-4 11 -12 0
-13 3 0
-13 -12 0
-3 12 13 0
-15 14 0
-15 1 0
-14 -1 15 0
-16 9 -17 0
16 -9 -17 0
-16 -9 17 0
16 9 17 0
-18 -15 0
-18 17 0
15 -17 18 0
19 -13 0
19 18 0
13 -18 -19 0
2 5 -9 18 19 0
16 -12 5 0
13 9 1 10 8 0
-17 4 15 16 0
19 0
