sat_easy_train/easy_282_SAT.dimacs
p cnf 118 395
-3 -1 0
-3 -2 0
1 2 3 0
-5 -6 -7 0
5 6 -7 0
-5 6 7 0
5 -6 7 0
-9 7 0
-9 -8 0
-7 8 9 0
-4 9 -10 0
4 -9 -10 0
-4 -9 10 0
4 9 10 0
-11 3 0
-11 -10 0
-3 10 11 0
11 12 -13 0
-11 -12 -13 0
11 -12 13 0
-11 12 13 0
13 -14 -15 0
-13 14 -15 0
13 14 15 0
-13 -14 15 0
-15 16 -17 0
15 -16 -17 0
-15 -16 17 0
15 16 17 0
-18 17 0
-18 -16 0
-17 16 18 0
-1 -5 -19 0
1 5 -19 0
-1 5 19 0
1 -5 19 0
-8 4 -20 0
8 -4 -20 0
-8 -4 20 0
8 4 20 0
-19 20 -21 0
19 -20 -21 0
-19 -20 21 0
19 20 21 0
11 -21 -22 0
-11 21 -22 0
11 21 22 0
-11 -21 22 0
-23 3 0
-23 16 0
-3 -16 23 0
22 -23 -24 0
-22 23 -24 0
22 23 24 0
-22 -23 24 0
-25 18 0
-25 24 0
-18 -24 25 0
26 -16 0
26 10 0
16 -10 -26 0
26 4 -27 0
-26 -4 -27 0
26 -4 27 0
-26 4 27 0
-28 -21 0
-28 -14 0
21 14 28 0
29 27 0
29 -28 0
-27 28 -29 0
-16 29 -30 0
16 -29 -30 0
-16 -29 30 0
16 29 30 0
11 7 -31 0
-11 -7 -31 0
11 -7 31 0
-11 7 31 0
32 -10 0
32 -31 0
10 31 -32 0
33 30 0
33 32 0
-30 -32 -33 0
33 -18 -34 0
-33 18 -34 0
33 18 34 0
-33 -18 34 0
-35 6 0
-35 -4 0
-6 4 35 0
4 -35 -36 0
-4 35 -36 0
4 35 36 0
-4 -35 36 0
37 34 0
37 36 0
-34 -36 -37 0
-38 -25 0
-38 -37 0
25 37 38 0
-40 -12 0
-40 39 0
12 -39 40 0
-41 9 0
-41 -40 0
-9 40 41 0
9 19 -42 0
-9 -19 -42 0
9 -19 42 0
-9 19 42 0
43 -41 0
43 42 0
41 -42 -43 0
46 -44 0
46 -45 0
44 45 -46 0
-47 -46 0
-47 -13 0
46 13 47 0
-8 -16 -48 0
8 16 -48 0
-8 16 48 0
8 -16 48 0
-50 -48 0
-50 49 0
48 -49 50 0
-51 -47 0
-51 50 0
47 -50 51 0
52 -43 0
52 51 0
43 -51 -52 0
-53 -38 0
-53 -52 0
38 52 53 0
54 48 0
54 -20 0
-48 20 -54 0
56 55 0
56 -9 0
-55 9 -56 0
57 56 0
57 56 0
-56 -57 0
58 39 0
58 7 0
-39 -7 -58 0
-57 58 -59 0
57 -58 -59 0
-57 -58 59 0
57 58 59 0
60 -54 0
60 59 0
54 -59 -60 0
61 -4 0
61 -20 0
4 20 -61 0
62 -11 0
62 -49 0
11 49 -62 0
-61 -62 -63 0
61 62 -63 0
-61 62 63 0
61 -62 63 0
-64 -2 0
-64 45 0
2 -45 64 0
65 6 0
65 -1 0
-6 1 -65 0
64 -65 -66 0
-64 65 -66 0
64 65 66 0
-64 -65 66 0
8 22 -67 0
-8 -22 -67 0
8 -22 67 0
-8 22 67 0
68 67 0
68 -20 0
-67 20 -68 0
39 -68 -69 0
-39 68 -69 0
39 68 69 0
-39 -68 69 0
66 69 -70 0
-66 -69 -70 0
66 -69 70 0
-66 69 70 0
-71 -48 0
-71 61 0
48 -61 71 0
-70 71 -72 0
70 -71 -72 0
-70 -71 72 0
70 71 72 0
-73 63 0
-73 -72 0
-63 72 73 0
74 39 0
74 -9 0
-39 9 -74 0
-14 74 -75 0
14 -74 -75 0
-14 -74 75 0
14 74 75 0
-76 -62 0
-76 -29 0
62 29 76 0
-77 75 0
-77 76 0
-75 -76 77 0
-78 74 0
-78 49 0
-74 -49 78 0
79 -19 0
79 39 0
19 -39 -79 0
80 1 0
80 -79 0
-1 79 -80 0
82 -81 0
82 -40 0
81 40 -82 0
83 80 0
83 -82 0
-80 82 -83 0
78 -83 -84 0
-78 83 -84 0
78 83 84 0
-78 -83 84 0
-77 -84 -85 0
77 84 -85 0
-77 84 85 0
77 -84 85 0
-86 -73 0
-86 85 0
73 -85 86 0
87 -60 0
87 86 0
60 -86 -87 0
53 -87 -88 0
-53 87 -88 0
53 87 88 0
-53 -87 88 0
89 16 0
89 -22 0
-16 22 -89 0
90 -89 0
90 64 0
89 -64 -90 0
-91 11 0
-91 20 0
-11 -20 91 0
92 -91 0
92 89 0
91 -89 -92 0
-48 89 -93 0
48 -89 -93 0
-48 -89 93 0
48 89 93 0
2 93 -94 0
-2 -93 -94 0
2 -93 94 0
-2 93 94 0
95 92 0
95 94 0
-92 -94 -95 0
-96 90 0
-96 95 0
-90 -95 96 0
97 19 0
97 65 0
-19 -65 -97 0
-96 97 -98 0
96 -97 -98 0
-96 -97 98 0
96 97 98 0
12 -14 -99 0
-12 14 -99 0
12 14 99 0
-12 -14 99 0
-100 22 0
-100 99 0
-22 -99 100 0
-16 -100 -101 0
16 100 -101 0
-16 100 101 0
16 -100 101 0
-102 12 0
-102 -2 0
-12 2 102 0
-101 -102 -103 0
101 102 -103 0
-101 102 103 0
101 -102 103 0
-104 98 0
-104 103 0
-98 -103 104 0
105 10 0
105 45 0
-10 -45 -105 0
106 74 0
106 -4 0
-74 4 -106 0
107 -105 0
107 106 0
105 -106 -107 0
108 6 0
108 -26 0
-6 26 -108 0
-109 7 0
-109 -108 0
-7 108 109 0
-111 -109 0
-111 110 0
109 -110 111 0
-112 -107 0
-112 111 0
107 -111 112 0
113 16 0
113 67 0
-16 -67 -113 0
-112 -113 -114 0
112 113 -114 0
-112 113 114 0
112 -113 114 0
-115 -18 0
-115 31 0
18 -31 115 0
-114 115 -116 0
114 -115 -116 0
-114 -115 116 0
114 115 116 0
-104 -116 -117 0
104 116 -117 0
-104 116 117 0
104 -116 117 0
-118 -88 0
-118 -117 0
88 117 118 0
-109 94 -57 -32 -80 0
-108 68 -59 0
-76 36 -79 -115 -83 0
-33 -44 -100 -91 -87 0
65 -100 28 58 74 -23 0
47 37 -77 103 84 0
-27 -59 43 0
91 31 77 0
96 58 0
-6 13 0
-109 32 0
118 -83 34 -112 0
-75 6 -4 -25 47 -52 0
107 -75 17 5 26 0
-11 54 -56 0
-115 -73 0
-109 -39 0
77 36 2 0
97 43 -108 -54 94 104 0
62 -82 0
39 -102 86 0
94 -12 81 70 0
-13 -87 -17 30 -15 -110 0
115 -84 88 94 61 0
-70 -20 75 -95 -32 0
-100 -61 0
29 -31 53 33 -94 -41 0
-5 54 0
-108 -51 79 0
-103 -57 96 17 0
11 -102 -95 -76 0
-48 -17 20 -27 0
-25 -41 0
-76 28 -6 -57 -16 0
-28 -117 0
-110 -85 11 0
19 -106 5 0
43 108 48 0
-84 -26 49 9 0
8 61 0
-40 88 6 31 92 0
47 107 -29 0
44 38 113 22 -62 0
-37 -73 -11 0
15 -46 0
47 105 0
-28 115 0
41 75 84 3 -47 -115 0
105 54 74 59 11 0
-12 -102 6 -73 -74 0
26 -112 114 0
118 0
